NAME: tsp40_11
COMMENT: 40-tsp problem (Padberg/Rinaldi)
TYPE: TSP
DIMENSION: 40
EDGE_WEIGHT_TYPE : EUC_2D
NODE_COORD_SECTION
1 39 9
2 22 13
3 1 13
4 14 17
5 12 37
6 7 1
7 6 4
8 12 35
9 27 8
10 33 23
11 9 15
12 30 35
13 18 17
14 38 28
15 16 32
16 10 13
17 28 6
18 36 19
19 4 39
20 29 0
21 38 8
22 14 38
23 4 1
24 31 16
25 13 40
26 22 16
27 39 27
28 13 13
29 1 27
30 26 34
31 29 11
32 12 8
33 20 4
34 4 24
35 30 14
36 13 5
37 36 9
38 28 3
39 8 34
40 3 28
